balance_scale_one_hot/balance_scale_lin_find_only_b.mps
NAME balance_scale_lin_find_b
ROWS
 N  OBJ
 E  R0      
 E  R1      
 E  R2      
 E  R3      
 E  R4      
 E  R5      
 E  R6      
 E  R7      
 E  R8      
 E  R9      
 E  R10     
 E  R11     
 E  R12     
 E  R13     
 G  OneHot_3_0_a
 G  OneHot_3_0_b
 G  OneHot_3_1_a
 G  OneHot_3_1_b
 G  OneHot_3_2_a
 G  OneHot_3_2_b
 E  BalFind 
 E  no_left 
 E  no_right
COLUMNS
    i_0_0     R0        6.3798087835311890e-01
    i_0_0     R1        7.5475931167602539e-01
    i_0_0     R2        4.8892192542552948e-02
    i_0_0     R3        -4.2926561832427979e-01
    i_0_1     R0        -7.3405042290687561e-02
    i_0_1     R1        -1.5725836157798767e-01
    i_0_1     R2        3.5396736860275269e-01
    i_0_1     R3        -9.9924039840698242e-01
    i_0_2     R0        2.1287223696708679e-01
    i_0_2     R1        -6.6521823406219482e-01
    i_0_2     R2        -1.2252387404441833e-01
    i_0_2     R3        3.7910252809524536e-01
    i_0_3     R0        -4.6451607346534729e-01
    i_0_3     R1        -3.1605786085128784e-01
    i_0_3     R2        -5.7615965604782104e-01
    i_0_3     R3        -1.6789413988590240e-02
    x_0_0     R0        1
    x_0_1     R1        1
    x_0_2     R2        1
    x_0_3     R3        1
    MARKER    'MARKER'                 'INTORG'
    d_0_0     OBJ       0
    d_0_1     OBJ       0
    d_0_2     OBJ       0
    d_0_3     OBJ       0
    MARKER    'MARKER'                 'INTEND'
    o_0_0     R4        -6.2615984678268433e-01
    o_0_0     R5        1.2951011955738068e-01
    o_0_0     R6        2.5555655360221863e-01
    o_0_0     R7        4.0417265892028809e-01
    o_0_1     R4        -3.9529245346784592e-02
    o_0_1     R5        -2.2551965713500977e-01
    o_0_1     R6        -1.0147316455841064e+00
    o_0_1     R7        7.6209813356399536e-01
    o_0_2     R4        5.5130487680435181e-01
    o_0_2     R5        -2.7948039770126343e-01
    o_0_2     R6        -9.2903113365173340e-01
    o_0_2     R7        6.8888449668884277e-01
    o_0_3     R4        -6.9231069087982178e-01
    o_0_3     R5        1.8626417964696884e-02
    o_0_3     R6        2.3300981521606445e-01
    o_0_3     R7        -5.9146595001220703e-01
    x_1_0     R4        1
    x_1_1     R5        1
    x_1_2     R6        1
    x_1_3     R7        1
    MARKER    'MARKER'                 'INTORG'
    d_1_0     OBJ       0
    d_1_1     OBJ       0
    d_1_2     OBJ       0
    d_1_3     OBJ       0
    MARKER    'MARKER'                 'INTEND'
    o_1_0     R8        -9.1115558147430420e-01
    o_1_0     R9        -5.8376741409301758e-01
    o_1_0     R10       1.6923248767852783e-01
    o_1_1     R8        5.9994280338287354e-01
    o_1_1     R9        -5.5900585651397705e-01
    o_1_1     R10       -4.9686074256896973e-01
    o_1_2     R8        7.2490698099136353e-01
    o_1_2     R9        2.2997125983238220e-01
    o_1_2     R10       -8.6526620388031006e-01
    o_1_3     R8        -1.2218964099884033e+00
    o_1_3     R9        3.5976943373680115e-01
    o_1_3     R10       -8.6206540465354919e-02
    x_2_0     R8        1
    x_2_0     R11       -1
    x_2_1     R9        1
    x_2_1     R12       -1
    x_2_2     R10       1
    x_2_2     R13       -1
    MARKER    'MARKER'                 'INTORG'
    o_0_3_0_d_3_0  OBJ       0
    o_1_3_0_d_3_0  OBJ       0
    MARKER    'MARKER'                 'INTEND'
    x_3_0     R11       1
    x_3_0     OneHot_3_0_a  -1
    x_3_0     OneHot_3_0_b  1
    x_3_1     R12       1
    x_3_1     OneHot_3_1_a  -1
    x_3_1     OneHot_3_1_b  1
    x_3_2     R13       1
    x_3_2     OneHot_3_2_a  -1
    x_3_2     OneHot_3_2_b  1
    o_0_3_0   OBJ       0
    o_1_3_0   R11       1
    o_1_3_0   R12       1
    o_1_3_0   R13       1
    MARKER    'MARKER'                 'INTORG'
    o_3_0     OneHot_3_0_a  9.9999900000001001e+05
    o_3_0     OneHot_3_0_b  -999999
    o_3_0     no_left   1
    o_3_1     OneHot_3_1_a  9.9999900000001001e+05
    o_3_1     OneHot_3_1_b  -999999
    o_3_1     BalFind   1
    o_3_2     OneHot_3_2_a  9.9999900000001001e+05
    o_3_2     OneHot_3_2_b  -999999
    o_3_2     no_right  1
    MARKER    'MARKER'                 'INTEND'
RHS
    RHS1      R0        -2.1016687154769897e-01
    RHS1      R1        8.5867114365100861e-02
    RHS1      R2        2.3653666675090790e-01
    RHS1      R3        1.0610554367303848e-01
    RHS1      R4        2.2550787776708603e-02
    RHS1      R5        -1.8887858092784882e-01
    RHS1      R6        -1.0333302617073059e-01
    RHS1      R7        1.6642309725284576e-01
    RHS1      R8        1.0583135485649109e-01
    RHS1      R9        -1.6196148097515106e-01
    RHS1      R10       7.1038082242012024e-02
    RHS1      OneHot_3_0_a  9.9999900000001009e-03
    RHS1      OneHot_3_0_b  -999999
    RHS1      OneHot_3_1_a  9.9999900000001009e-03
    RHS1      OneHot_3_1_b  -999999
    RHS1      OneHot_3_2_a  9.9999900000001009e-03
    RHS1      OneHot_3_2_b  -999999
    RHS1      BalFind   1
BOUNDS
 LO BND1      i_0_0     1
 UP BND1      i_0_0     5
 LO BND1      i_0_1     1
 UP BND1      i_0_1     5
 LO BND1      i_0_2     1
 UP BND1      i_0_2     5
 LO BND1      i_0_3     1
 UP BND1      i_0_3     5
 FR BND1      x_0_0   
 FR BND1      x_0_1   
 FR BND1      x_0_2   
 FR BND1      x_0_3   
 BV BND1      d_0_0   
 BV BND1      d_0_1   
 BV BND1      d_0_2   
 BV BND1      d_0_3   
 FR BND1      o_0_0   
 FR BND1      o_0_1   
 FR BND1      o_0_2   
 FR BND1      o_0_3   
 FR BND1      x_1_0   
 FR BND1      x_1_1   
 FR BND1      x_1_2   
 FR BND1      x_1_3   
 BV BND1      d_1_0   
 BV BND1      d_1_1   
 BV BND1      d_1_2   
 BV BND1      d_1_3   
 FR BND1      o_1_0   
 FR BND1      o_1_1   
 FR BND1      o_1_2   
 FR BND1      o_1_3   
 FR BND1      x_2_0   
 FR BND1      x_2_1   
 FR BND1      x_2_2   
 BV BND1      o_0_3_0_d_3_0
 BV BND1      o_1_3_0_d_3_0
 FR BND1      x_3_0   
 FR BND1      x_3_1   
 FR BND1      x_3_2   
 FR BND1      o_0_3_0 
 FR BND1      o_1_3_0 
 BV BND1      o_3_0   
 BV BND1      o_3_1   
 BV BND1      o_3_2   
GENCONS
 MAX ReLU_0_0
    o_0_0
    x_0_0
    0
 MAX ReLU_0_1
    o_0_1
    x_0_1
    0
 MAX ReLU_0_2
    o_0_2
    x_0_2
    0
 MAX ReLU_0_3
    o_0_3
    x_0_3
    0
 MAX ReLU_1_0
    o_1_0
    x_1_0
    0
 MAX ReLU_1_1
    o_1_1
    x_1_1
    0
 MAX ReLU_1_2
    o_1_2
    x_1_2
    0
 MAX ReLU_1_3
    o_1_3
    x_1_3
    0
 MAX GC8
    o_0_3_0
    x_2_0
    x_2_1
 MAX GC9
    o_1_3_0
    o_0_3_0
    x_2_2
ENDATA
